p cnf 10 15
3 -6 1 8 10 0
-7 4 -10 -2 -9 0
-6 -8 -2 -10 -5 0
-9 -4 -3 5 8 0
5 8 3 -10 -1 0
-5 3 2 7 -4 0
6 2 4 -10 -9 0
-4 -1 -6 8 -10 0
-8 7 -10 -2 -6 0
-4 -1 -2 7 -6 0
7 6 -8 10 4 0
-3 -7 4 -1 -5 0
-6 -1 -10 -9 3 0
-9 -3 10 7 4 0
7 -10 -3 9 4 0
